<instance format="XCSP3" type="COP">
  <variables>
    <array id="x" size="[81]"> 0..80 </array>
  </variables>
  <constraints>
    <group>
      <intension> ne(%0,%1) </intension>
      <args> x[0] x[1] </args>
      <args> x[0] x[2] </args>
      <args> x[0] x[3] </args>
      <args> x[0] x[4] </args>
      <args> x[0] x[5] </args>
      <args> x[0] x[6] </args>
      <args> x[0] x[7] </args>
      <args> x[0] x[8] </args>
      <args> x[0] x[9] </args>
      <args> x[0] x[10] </args>
      <args> x[0] x[18] </args>
      <args> x[0] x[20] </args>
      <args> x[0] x[27] </args>
      <args> x[0] x[30] </args>
      <args> x[0] x[36] </args>
      <args> x[0] x[40] </args>
      <args> x[0] x[45] </args>
      <args> x[0] x[50] </args>
      <args> x[0] x[54] </args>
      <args> x[0] x[60] </args>
      <args> x[0] x[63] </args>
      <args> x[0] x[70] </args>
      <args> x[0] x[72] </args>
      <args> x[0] x[80] </args>
      <args> x[1] x[2] </args>
      <args> x[1] x[3] </args>
      <args> x[1] x[4] </args>
      <args> x[1] x[5] </args>
      <args> x[1] x[6] </args>
      <args> x[1] x[7] </args>
      <args> x[1] x[8] </args>
      <args> x[1] x[9] </args>
      <args> x[1] x[10] </args>
      <args> x[1] x[11] </args>
      <args> x[1] x[19] </args>
      <args> x[1] x[21] </args>
      <args> x[1] x[28] </args>
      <args> x[1] x[31] </args>
      <args> x[1] x[37] </args>
      <args> x[1] x[41] </args>
      <args> x[1] x[46] </args>
      <args> x[1] x[51] </args>
      <args> x[1] x[55] </args>
      <args> x[1] x[61] </args>
      <args> x[1] x[64] </args>
      <args> x[1] x[71] </args>
      <args> x[1] x[73] </args>
      <args> x[2] x[3] </args>
      <args> x[2] x[4] </args>
      <args> x[2] x[5] </args>
      <args> x[2] x[6] </args>
      <args> x[2] x[7] </args>
      <args> x[2] x[8] </args>
      <args> x[2] x[10] </args>
      <args> x[2] x[11] </args>
      <args> x[2] x[12] </args>
      <args> x[2] x[18] </args>
      <args> x[2] x[20] </args>
      <args> x[2] x[22] </args>
      <args> x[2] x[29] </args>
      <args> x[2] x[32] </args>
      <args> x[2] x[38] </args>
      <args> x[2] x[42] </args>
      <args> x[2] x[47] </args>
      <args> x[2] x[52] </args>
      <args> x[2] x[56] </args>
      <args> x[2] x[62] </args>
      <args> x[2] x[65] </args>
      <args> x[2] x[74] </args>
      <args> x[3] x[4] </args>
      <args> x[3] x[5] </args>
      <args> x[3] x[6] </args>
      <args> x[3] x[7] </args>
      <args> x[3] x[8] </args>
      <args> x[3] x[11] </args>
      <args> x[3] x[12] </args>
      <args> x[3] x[13] </args>
      <args> x[3] x[19] </args>
      <args> x[3] x[21] </args>
      <args> x[3] x[23] </args>
      <args> x[3] x[27] </args>
      <args> x[3] x[30] </args>
      <args> x[3] x[33] </args>
      <args> x[3] x[39] </args>
      <args> x[3] x[43] </args>
      <args> x[3] x[48] </args>
      <args> x[3] x[53] </args>
      <args> x[3] x[57] </args>
      <args> x[3] x[66] </args>
      <args> x[3] x[75] </args>
      <args> x[4] x[5] </args>
      <args> x[4] x[6] </args>
      <args> x[4] x[7] </args>
      <args> x[4] x[8] </args>
      <args> x[4] x[12] </args>
      <args> x[4] x[13] </args>
      <args> x[4] x[14] </args>
      <args> x[4] x[20] </args>
      <args> x[4] x[22] </args>
      <args> x[4] x[24] </args>
      <args> x[4] x[28] </args>
      <args> x[4] x[31] </args>
      <args> x[4] x[34] </args>
      <args> x[4] x[36] </args>
      <args> x[4] x[40] </args>
      <args> x[4] x[44] </args>
      <args> x[4] x[49] </args>
      <args> x[4] x[58] </args>
      <args> x[4] x[67] </args>
      <args> x[4] x[76] </args>
      <args> x[5] x[6] </args>
      <args> x[5] x[7] </args>
      <args> x[5] x[8] </args>
      <args> x[5] x[13] </args>
      <args> x[5] x[14] </args>
      <args> x[5] x[15] </args>
      <args> x[5] x[21] </args>
      <args> x[5] x[23] </args>
      <args> x[5] x[25] </args>
      <args> x[5] x[29] </args>
      <args> x[5] x[32] </args>
      <args> x[5] x[35] </args>
      <args> x[5] x[37] </args>
      <args> x[5] x[41] </args>
      <args> x[5] x[45] </args>
      <args> x[5] x[50] </args>
      <args> x[5] x[59] </args>
      <args> x[5] x[68] </args>
      <args> x[5] x[77] </args>
      <args> x[6] x[7] </args>
      <args> x[6] x[8] </args>
      <args> x[6] x[14] </args>
      <args> x[6] x[15] </args>
      <args> x[6] x[16] </args>
      <args> x[6] x[22] </args>
      <args> x[6] x[24] </args>
      <args> x[6] x[26] </args>
      <args> x[6] x[30] </args>
      <args> x[6] x[33] </args>
      <args> x[6] x[38] </args>
      <args> x[6] x[42] </args>
      <args> x[6] x[46] </args>
      <args> x[6] x[51] </args>
      <args> x[6] x[54] </args>
      <args> x[6] x[60] </args>
      <args> x[6] x[69] </args>
      <args> x[6] x[78] </args>
      <args> x[7] x[8] </args>
      <args> x[7] x[15] </args>
      <args> x[7] x[16] </args>
      <args> x[7] x[17] </args>
      <args> x[7] x[23] </args>
      <args> x[7] x[25] </args>
      <args> x[7] x[31] </args>
      <args> x[7] x[34] </args>
      <args> x[7] x[39] </args>
      <args> x[7] x[43] </args>
      <args> x[7] x[47] </args>
      <args> x[7] x[52] </args>
      <args> x[7] x[55] </args>
      <args> x[7] x[61] </args>
      <args> x[7] x[63] </args>
      <args> x[7] x[70] </args>
      <args> x[7] x[79] </args>
      <args> x[8] x[16] </args>
      <args> x[8] x[17] </args>
      <args> x[8] x[24] </args>
      <args> x[8] x[26] </args>
      <args> x[8] x[32] </args>
      <args> x[8] x[35] </args>
      <args> x[8] x[40] </args>
      <args> x[8] x[44] </args>
      <args> x[8] x[48] </args>
      <args> x[8] x[53] </args>
      <args> x[8] x[56] </args>
      <args> x[8] x[62] </args>
      <args> x[8] x[64] </args>
      <args> x[8] x[71] </args>
      <args> x[8] x[72] </args>
      <args> x[8] x[80] </args>
      <args> x[9] x[10] </args>
      <args> x[9] x[11] </args>
      <args> x[9] x[12] </args>
      <args> x[9] x[13] </args>
      <args> x[9] x[14] </args>
      <args> x[9] x[15] </args>
      <args> x[9] x[16] </args>
      <args> x[9] x[17] </args>
      <args> x[9] x[18] </args>
      <args> x[9] x[19] </args>
      <args> x[9] x[27] </args>
      <args> x[9] x[29] </args>
      <args> x[9] x[36] </args>
      <args> x[9] x[39] </args>
      <args> x[9] x[45] </args>
      <args> x[9] x[49] </args>
      <args> x[9] x[54] </args>
      <args> x[9] x[59] </args>
      <args> x[9] x[63] </args>
      <args> x[9] x[69] </args>
      <args> x[9] x[72] </args>
      <args> x[9] x[79] </args>
      <args> x[10] x[11] </args>
      <args> x[10] x[12] </args>
      <args> x[10] x[13] </args>
      <args> x[10] x[14] </args>
      <args> x[10] x[15] </args>
      <args> x[10] x[16] </args>
      <args> x[10] x[17] </args>
      <args> x[10] x[18] </args>
      <args> x[10] x[19] </args>
      <args> x[10] x[20] </args>
      <args> x[10] x[28] </args>
      <args> x[10] x[30] </args>
      <args> x[10] x[37] </args>
      <args> x[10] x[40] </args>
      <args> x[10] x[46] </args>
      <args> x[10] x[50] </args>
      <args> x[10] x[55] </args>
      <args> x[10] x[60] </args>
      <args> x[10] x[64] </args>
      <args> x[10] x[70] </args>
      <args> x[10] x[73] </args>
      <args> x[10] x[80] </args>
      <args> x[11] x[12] </args>
      <args> x[11] x[13] </args>
      <args> x[11] x[14] </args>
      <args> x[11] x[15] </args>
      <args> x[11] x[16] </args>
      <args> x[11] x[17] </args>
      <args> x[11] x[19] </args>
      <args> x[11] x[20] </args>
      <args> x[11] x[21] </args>
      <args> x[11] x[27] </args>
      <args> x[11] x[29] </args>
      <args> x[11] x[31] </args>
      <args> x[11] x[38] </args>
      <args> x[11] x[41] </args>
      <args> x[11] x[47] </args>
      <args> x[11] x[51] </args>
      <args> x[11] x[56] </args>
      <args> x[11] x[61] </args>
      <args> x[11] x[65] </args>
      <args> x[11] x[71] </args>
      <args> x[11] x[74] </args>
      <args> x[12] x[13] </args>
      <args> x[12] x[14] </args>
      <args> x[12] x[15] </args>
      <args> x[12] x[16] </args>
      <args> x[12] x[17] </args>
      <args> x[12] x[20] </args>
      <args> x[12] x[21] </args>
      <args> x[12] x[22] </args>
      <args> x[12] x[28] </args>
      <args> x[12] x[30] </args>
      <args> x[12] x[32] </args>
      <args> x[12] x[36] </args>
      <args> x[12] x[39] </args>
      <args> x[12] x[42] </args>
      <args> x[12] x[48] </args>
      <args> x[12] x[52] </args>
      <args> x[12] x[57] </args>
      <args> x[12] x[62] </args>
      <args> x[12] x[66] </args>
      <args> x[12] x[75] </args>
      <args> x[13] x[14] </args>
      <args> x[13] x[15] </args>
      <args> x[13] x[16] </args>
      <args> x[13] x[17] </args>
      <args> x[13] x[21] </args>
      <args> x[13] x[22] </args>
      <args> x[13] x[23] </args>
      <args> x[13] x[29] </args>
      <args> x[13] x[31] </args>
      <args> x[13] x[33] </args>
      <args> x[13] x[37] </args>
      <args> x[13] x[40] </args>
      <args> x[13] x[43] </args>
      <args> x[13] x[45] </args>
      <args> x[13] x[49] </args>
      <args> x[13] x[53] </args>
      <args> x[13] x[58] </args>
      <args> x[13] x[67] </args>
      <args> x[13] x[76] </args>
      <args> x[14] x[15] </args>
      <args> x[14] x[16] </args>
      <args> x[14] x[17] </args>
      <args> x[14] x[22] </args>
      <args> x[14] x[23] </args>
      <args> x[14] x[24] </args>
      <args> x[14] x[30] </args>
      <args> x[14] x[32] </args>
      <args> x[14] x[34] </args>
      <args> x[14] x[38] </args>
      <args> x[14] x[41] </args>
      <args> x[14] x[44] </args>
      <args> x[14] x[46] </args>
      <args> x[14] x[50] </args>
      <args> x[14] x[54] </args>
      <args> x[14] x[59] </args>
      <args> x[14] x[68] </args>
      <args> x[14] x[77] </args>
      <args> x[15] x[16] </args>
      <args> x[15] x[17] </args>
      <args> x[15] x[23] </args>
      <args> x[15] x[24] </args>
      <args> x[15] x[25] </args>
      <args> x[15] x[31] </args>
      <args> x[15] x[33] </args>
      <args> x[15] x[35] </args>
      <args> x[15] x[39] </args>
      <args> x[15] x[42] </args>
      <args> x[15] x[47] </args>
      <args> x[15] x[51] </args>
      <args> x[15] x[55] </args>
      <args> x[15] x[60] </args>
      <args> x[15] x[63] </args>
      <args> x[15] x[69] </args>
      <args> x[15] x[78] </args>
      <args> x[16] x[17] </args>
      <args> x[16] x[24] </args>
      <args> x[16] x[25] </args>
      <args> x[16] x[26] </args>
      <args> x[16] x[32] </args>
      <args> x[16] x[34] </args>
      <args> x[16] x[40] </args>
      <args> x[16] x[43] </args>
      <args> x[16] x[48] </args>
      <args> x[16] x[52] </args>
      <args> x[16] x[56] </args>
      <args> x[16] x[61] </args>
      <args> x[16] x[64] </args>
      <args> x[16] x[70] </args>
      <args> x[16] x[72] </args>
      <args> x[16] x[79] </args>
      <args> x[17] x[25] </args>
      <args> x[17] x[26] </args>
      <args> x[17] x[33] </args>
      <args> x[17] x[35] </args>
      <args> x[17] x[41] </args>
      <args> x[17] x[44] </args>
      <args> x[17] x[49] </args>
      <args> x[17] x[53] </args>
      <args> x[17] x[57] </args>
      <args> x[17] x[62] </args>
      <args> x[17] x[65] </args>
      <args> x[17] x[71] </args>
      <args> x[17] x[73] </args>
      <args> x[17] x[80] </args>
      <args> x[18] x[19] </args>
      <args> x[18] x[20] </args>
      <args> x[18] x[21] </args>
      <args> x[18] x[22] </args>
      <args> x[18] x[23] </args>
      <args> x[18] x[24] </args>
      <args> x[18] x[25] </args>
      <args> x[18] x[26] </args>
      <args> x[18] x[27] </args>
      <args> x[18] x[28] </args>
      <args> x[18] x[36] </args>
      <args> x[18] x[38] </args>
      <args> x[18] x[45] </args>
      <args> x[18] x[48] </args>
      <args> x[18] x[54] </args>
      <args> x[18] x[58] </args>
      <args> x[18] x[63] </args>
      <args> x[18] x[68] </args>
      <args> x[18] x[72] </args>
      <args> x[18] x[78] </args>
      <args> x[19] x[20] </args>
      <args> x[19] x[21] </args>
      <args> x[19] x[22] </args>
      <args> x[19] x[23] </args>
      <args> x[19] x[24] </args>
      <args> x[19] x[25] </args>
      <args> x[19] x[26] </args>
      <args> x[19] x[27] </args>
      <args> x[19] x[28] </args>
      <args> x[19] x[29] </args>
      <args> x[19] x[37] </args>
      <args> x[19] x[39] </args>
      <args> x[19] x[46] </args>
      <args> x[19] x[49] </args>
      <args> x[19] x[55] </args>
      <args> x[19] x[59] </args>
      <args> x[19] x[64] </args>
      <args> x[19] x[69] </args>
      <args> x[19] x[73] </args>
      <args> x[19] x[79] </args>
      <args> x[20] x[21] </args>
      <args> x[20] x[22] </args>
      <args> x[20] x[23] </args>
      <args> x[20] x[24] </args>
      <args> x[20] x[25] </args>
      <args> x[20] x[26] </args>
      <args> x[20] x[28] </args>
      <args> x[20] x[29] </args>
      <args> x[20] x[30] </args>
      <args> x[20] x[36] </args>
      <args> x[20] x[38] </args>
      <args> x[20] x[40] </args>
      <args> x[20] x[47] </args>
      <args> x[20] x[50] </args>
      <args> x[20] x[56] </args>
      <args> x[20] x[60] </args>
      <args> x[20] x[65] </args>
      <args> x[20] x[70] </args>
      <args> x[20] x[74] </args>
      <args> x[20] x[80] </args>
      <args> x[21] x[22] </args>
      <args> x[21] x[23] </args>
      <args> x[21] x[24] </args>
      <args> x[21] x[25] </args>
      <args> x[21] x[26] </args>
      <args> x[21] x[29] </args>
      <args> x[21] x[30] </args>
      <args> x[21] x[31] </args>
      <args> x[21] x[37] </args>
      <args> x[21] x[39] </args>
      <args> x[21] x[41] </args>
      <args> x[21] x[45] </args>
      <args> x[21] x[48] </args>
      <args> x[21] x[51] </args>
      <args> x[21] x[57] </args>
      <args> x[21] x[61] </args>
      <args> x[21] x[66] </args>
      <args> x[21] x[71] </args>
      <args> x[21] x[75] </args>
      <args> x[22] x[23] </args>
      <args> x[22] x[24] </args>
      <args> x[22] x[25] </args>
      <args> x[22] x[26] </args>
      <args> x[22] x[30] </args>
      <args> x[22] x[31] </args>
      <args> x[22] x[32] </args>
      <args> x[22] x[38] </args>
      <args> x[22] x[40] </args>
      <args> x[22] x[42] </args>
      <args> x[22] x[46] </args>
      <args> x[22] x[49] </args>
      <args> x[22] x[52] </args>
      <args> x[22] x[54] </args>
      <args> x[22] x[58] </args>
      <args> x[22] x[62] </args>
      <args> x[22] x[67] </args>
      <args> x[22] x[76] </args>
      <args> x[23] x[24] </args>
      <args> x[23] x[25] </args>
      <args> x[23] x[26] </args>
      <args> x[23] x[31] </args>
      <args> x[23] x[32] </args>
      <args> x[23] x[33] </args>
      <args> x[23] x[39] </args>
      <args> x[23] x[41] </args>
      <args> x[23] x[43] </args>
      <args> x[23] x[47] </args>
      <args> x[23] x[50] </args>
      <args> x[23] x[53] </args>
      <args> x[23] x[55] </args>
      <args> x[23] x[59] </args>
      <args> x[23] x[63] </args>
      <args> x[23] x[68] </args>
      <args> x[23] x[77] </args>
      <args> x[24] x[25] </args>
      <args> x[24] x[26] </args>
      <args> x[24] x[32] </args>
      <args> x[24] x[33] </args>
      <args> x[24] x[34] </args>
      <args> x[24] x[40] </args>
      <args> x[24] x[42] </args>
      <args> x[24] x[44] </args>
      <args> x[24] x[48] </args>
      <args> x[24] x[51] </args>
      <args> x[24] x[56] </args>
      <args> x[24] x[60] </args>
      <args> x[24] x[64] </args>
      <args> x[24] x[69] </args>
      <args> x[24] x[72] </args>
      <args> x[24] x[78] </args>
      <args> x[25] x[26] </args>
      <args> x[25] x[33] </args>
      <args> x[25] x[34] </args>
      <args> x[25] x[35] </args>
      <args> x[25] x[41] </args>
      <args> x[25] x[43] </args>
      <args> x[25] x[49] </args>
      <args> x[25] x[52] </args>
      <args> x[25] x[57] </args>
      <args> x[25] x[61] </args>
      <args> x[25] x[65] </args>
      <args> x[25] x[70] </args>
      <args> x[25] x[73] </args>
      <args> x[25] x[79] </args>
      <args> x[26] x[34] </args>
      <args> x[26] x[35] </args>
      <args> x[26] x[42] </args>
      <args> x[26] x[44] </args>
      <args> x[26] x[50] </args>
      <args> x[26] x[53] </args>
      <args> x[26] x[58] </args>
      <args> x[26] x[62] </args>
      <args> x[26] x[66] </args>
      <args> x[26] x[71] </args>
      <args> x[26] x[74] </args>
      <args> x[26] x[80] </args>
      <args> x[27] x[28] </args>
      <args> x[27] x[29] </args>
      <args> x[27] x[30] </args>
      <args> x[27] x[31] </args>
      <args> x[27] x[32] </args>
      <args> x[27] x[33] </args>
      <args> x[27] x[34] </args>
      <args> x[27] x[35] </args>
      <args> x[27] x[36] </args>
      <args> x[27] x[37] </args>
      <args> x[27] x[45] </args>
      <args> x[27] x[47] </args>
      <args> x[27] x[54] </args>
      <args> x[27] x[57] </args>
      <args> x[27] x[63] </args>
      <args> x[27] x[67] </args>
      <args> x[27] x[72] </args>
      <args> x[27] x[77] </args>
      <args> x[28] x[29] </args>
      <args> x[28] x[30] </args>
      <args> x[28] x[31] </args>
      <args> x[28] x[32] </args>
      <args> x[28] x[33] </args>
      <args> x[28] x[34] </args>
      <args> x[28] x[35] </args>
      <args> x[28] x[36] </args>
      <args> x[28] x[37] </args>
      <args> x[28] x[38] </args>
      <args> x[28] x[46] </args>
      <args> x[28] x[48] </args>
      <args> x[28] x[55] </args>
      <args> x[28] x[58] </args>
      <args> x[28] x[64] </args>
      <args> x[28] x[68] </args>
      <args> x[28] x[73] </args>
      <args> x[28] x[78] </args>
      <args> x[29] x[30] </args>
      <args> x[29] x[31] </args>
      <args> x[29] x[32] </args>
      <args> x[29] x[33] </args>
      <args> x[29] x[34] </args>
      <args> x[29] x[35] </args>
      <args> x[29] x[37] </args>
      <args> x[29] x[38] </args>
      <args> x[29] x[39] </args>
      <args> x[29] x[45] </args>
      <args> x[29] x[47] </args>
      <args> x[29] x[49] </args>
      <args> x[29] x[56] </args>
      <args> x[29] x[59] </args>
      <args> x[29] x[65] </args>
      <args> x[29] x[69] </args>
      <args> x[29] x[74] </args>
      <args> x[29] x[79] </args>
      <args> x[30] x[31] </args>
      <args> x[30] x[32] </args>
      <args> x[30] x[33] </args>
      <args> x[30] x[34] </args>
      <args> x[30] x[35] </args>
      <args> x[30] x[38] </args>
      <args> x[30] x[39] </args>
      <args> x[30] x[40] </args>
      <args> x[30] x[46] </args>
      <args> x[30] x[48] </args>
      <args> x[30] x[50] </args>
      <args> x[30] x[54] </args>
      <args> x[30] x[57] </args>
      <args> x[30] x[60] </args>
      <args> x[30] x[66] </args>
      <args> x[30] x[70] </args>
      <args> x[30] x[75] </args>
      <args> x[30] x[80] </args>
      <args> x[31] x[32] </args>
      <args> x[31] x[33] </args>
      <args> x[31] x[34] </args>
      <args> x[31] x[35] </args>
      <args> x[31] x[39] </args>
      <args> x[31] x[40] </args>
      <args> x[31] x[41] </args>
      <args> x[31] x[47] </args>
      <args> x[31] x[49] </args>
      <args> x[31] x[51] </args>
      <args> x[31] x[55] </args>
      <args> x[31] x[58] </args>
      <args> x[31] x[61] </args>
      <args> x[31] x[63] </args>
      <args> x[31] x[67] </args>
      <args> x[31] x[71] </args>
      <args> x[31] x[76] </args>
      <args> x[32] x[33] </args>
      <args> x[32] x[34] </args>
      <args> x[32] x[35] </args>
      <args> x[32] x[40] </args>
      <args> x[32] x[41] </args>
      <args> x[32] x[42] </args>
      <args> x[32] x[48] </args>
      <args> x[32] x[50] </args>
      <args> x[32] x[52] </args>
      <args> x[32] x[56] </args>
      <args> x[32] x[59] </args>
      <args> x[32] x[62] </args>
      <args> x[32] x[64] </args>
      <args> x[32] x[68] </args>
      <args> x[32] x[72] </args>
      <args> x[32] x[77] </args>
      <args> x[33] x[34] </args>
      <args> x[33] x[35] </args>
      <args> x[33] x[41] </args>
      <args> x[33] x[42] </args>
      <args> x[33] x[43] </args>
      <args> x[33] x[49] </args>
      <args> x[33] x[51] </args>
      <args> x[33] x[53] </args>
      <args> x[33] x[57] </args>
      <args> x[33] x[60] </args>
      <args> x[33] x[65] </args>
      <args> x[33] x[69] </args>
      <args> x[33] x[73] </args>
      <args> x[33] x[78] </args>
      <args> x[34] x[35] </args>
      <args> x[34] x[42] </args>
      <args> x[34] x[43] </args>
      <args> x[34] x[44] </args>
      <args> x[34] x[50] </args>
      <args> x[34] x[52] </args>
      <args> x[34] x[58] </args>
      <args> x[34] x[61] </args>
      <args> x[34] x[66] </args>
      <args> x[34] x[70] </args>
      <args> x[34] x[74] </args>
      <args> x[34] x[79] </args>
      <args> x[35] x[43] </args>
      <args> x[35] x[44] </args>
      <args> x[35] x[51] </args>
      <args> x[35] x[53] </args>
      <args> x[35] x[59] </args>
      <args> x[35] x[62] </args>
      <args> x[35] x[67] </args>
      <args> x[35] x[71] </args>
      <args> x[35] x[75] </args>
      <args> x[35] x[80] </args>
      <args> x[36] x[37] </args>
      <args> x[36] x[38] </args>
      <args> x[36] x[39] </args>
      <args> x[36] x[40] </args>
      <args> x[36] x[41] </args>
      <args> x[36] x[42] </args>
      <args> x[36] x[43] </args>
      <args> x[36] x[44] </args>
      <args> x[36] x[45] </args>
      <args> x[36] x[46] </args>
      <args> x[36] x[54] </args>
      <args> x[36] x[56] </args>
      <args> x[36] x[63] </args>
      <args> x[36] x[66] </args>
      <args> x[36] x[72] </args>
      <args> x[36] x[76] </args>
      <args> x[37] x[38] </args>
      <args> x[37] x[39] </args>
      <args> x[37] x[40] </args>
      <args> x[37] x[41] </args>
      <args> x[37] x[42] </args>
      <args> x[37] x[43] </args>
      <args> x[37] x[44] </args>
      <args> x[37] x[45] </args>
      <args> x[37] x[46] </args>
      <args> x[37] x[47] </args>
      <args> x[37] x[55] </args>
      <args> x[37] x[57] </args>
      <args> x[37] x[64] </args>
      <args> x[37] x[67] </args>
      <args> x[37] x[73] </args>
      <args> x[37] x[77] </args>
      <args> x[38] x[39] </args>
      <args> x[38] x[40] </args>
      <args> x[38] x[41] </args>
      <args> x[38] x[42] </args>
      <args> x[38] x[43] </args>
      <args> x[38] x[44] </args>
      <args> x[38] x[46] </args>
      <args> x[38] x[47] </args>
      <args> x[38] x[48] </args>
      <args> x[38] x[54] </args>
      <args> x[38] x[56] </args>
      <args> x[38] x[58] </args>
      <args> x[38] x[65] </args>
      <args> x[38] x[68] </args>
      <args> x[38] x[74] </args>
      <args> x[38] x[78] </args>
      <args> x[39] x[40] </args>
      <args> x[39] x[41] </args>
      <args> x[39] x[42] </args>
      <args> x[39] x[43] </args>
      <args> x[39] x[44] </args>
      <args> x[39] x[47] </args>
      <args> x[39] x[48] </args>
      <args> x[39] x[49] </args>
      <args> x[39] x[55] </args>
      <args> x[39] x[57] </args>
      <args> x[39] x[59] </args>
      <args> x[39] x[63] </args>
      <args> x[39] x[66] </args>
      <args> x[39] x[69] </args>
      <args> x[39] x[75] </args>
      <args> x[39] x[79] </args>
      <args> x[40] x[41] </args>
      <args> x[40] x[42] </args>
      <args> x[40] x[43] </args>
      <args> x[40] x[44] </args>
      <args> x[40] x[48] </args>
      <args> x[40] x[49] </args>
      <args> x[40] x[50] </args>
      <args> x[40] x[56] </args>
      <args> x[40] x[58] </args>
      <args> x[40] x[60] </args>
      <args> x[40] x[64] </args>
      <args> x[40] x[67] </args>
      <args> x[40] x[70] </args>
      <args> x[40] x[72] </args>
      <args> x[40] x[76] </args>
      <args> x[40] x[80] </args>
      <args> x[41] x[42] </args>
      <args> x[41] x[43] </args>
      <args> x[41] x[44] </args>
      <args> x[41] x[49] </args>
      <args> x[41] x[50] </args>
      <args> x[41] x[51] </args>
      <args> x[41] x[57] </args>
      <args> x[41] x[59] </args>
      <args> x[41] x[61] </args>
      <args> x[41] x[65] </args>
      <args> x[41] x[68] </args>
      <args> x[41] x[71] </args>
      <args> x[41] x[73] </args>
      <args> x[41] x[77] </args>
      <args> x[42] x[43] </args>
      <args> x[42] x[44] </args>
      <args> x[42] x[50] </args>
      <args> x[42] x[51] </args>
      <args> x[42] x[52] </args>
      <args> x[42] x[58] </args>
      <args> x[42] x[60] </args>
      <args> x[42] x[62] </args>
      <args> x[42] x[66] </args>
      <args> x[42] x[69] </args>
      <args> x[42] x[74] </args>
      <args> x[42] x[78] </args>
      <args> x[43] x[44] </args>
      <args> x[43] x[51] </args>
      <args> x[43] x[52] </args>
      <args> x[43] x[53] </args>
      <args> x[43] x[59] </args>
      <args> x[43] x[61] </args>
      <args> x[43] x[67] </args>
      <args> x[43] x[70] </args>
      <args> x[43] x[75] </args>
      <args> x[43] x[79] </args>
      <args> x[44] x[52] </args>
      <args> x[44] x[53] </args>
      <args> x[44] x[60] </args>
      <args> x[44] x[62] </args>
      <args> x[44] x[68] </args>
      <args> x[44] x[71] </args>
      <args> x[44] x[76] </args>
      <args> x[44] x[80] </args>
      <args> x[45] x[46] </args>
      <args> x[45] x[47] </args>
      <args> x[45] x[48] </args>
      <args> x[45] x[49] </args>
      <args> x[45] x[50] </args>
      <args> x[45] x[51] </args>
      <args> x[45] x[52] </args>
      <args> x[45] x[53] </args>
      <args> x[45] x[54] </args>
      <args> x[45] x[55] </args>
      <args> x[45] x[63] </args>
      <args> x[45] x[65] </args>
      <args> x[45] x[72] </args>
      <args> x[45] x[75] </args>
      <args> x[46] x[47] </args>
      <args> x[46] x[48] </args>
      <args> x[46] x[49] </args>
      <args> x[46] x[50] </args>
      <args> x[46] x[51] </args>
      <args> x[46] x[52] </args>
      <args> x[46] x[53] </args>
      <args> x[46] x[54] </args>
      <args> x[46] x[55] </args>
      <args> x[46] x[56] </args>
      <args> x[46] x[64] </args>
      <args> x[46] x[66] </args>
      <args> x[46] x[73] </args>
      <args> x[46] x[76] </args>
      <args> x[47] x[48] </args>
      <args> x[47] x[49] </args>
      <args> x[47] x[50] </args>
      <args> x[47] x[51] </args>
      <args> x[47] x[52] </args>
      <args> x[47] x[53] </args>
      <args> x[47] x[55] </args>
      <args> x[47] x[56] </args>
      <args> x[47] x[57] </args>
      <args> x[47] x[63] </args>
      <args> x[47] x[65] </args>
      <args> x[47] x[67] </args>
      <args> x[47] x[74] </args>
      <args> x[47] x[77] </args>
      <args> x[48] x[49] </args>
      <args> x[48] x[50] </args>
      <args> x[48] x[51] </args>
      <args> x[48] x[52] </args>
      <args> x[48] x[53] </args>
      <args> x[48] x[56] </args>
      <args> x[48] x[57] </args>
      <args> x[48] x[58] </args>
      <args> x[48] x[64] </args>
      <args> x[48] x[66] </args>
      <args> x[48] x[68] </args>
      <args> x[48] x[72] </args>
      <args> x[48] x[75] </args>
      <args> x[48] x[78] </args>
      <args> x[49] x[50] </args>
      <args> x[49] x[51] </args>
      <args> x[49] x[52] </args>
      <args> x[49] x[53] </args>
      <args> x[49] x[57] </args>
      <args> x[49] x[58] </args>
      <args> x[49] x[59] </args>
      <args> x[49] x[65] </args>
      <args> x[49] x[67] </args>
      <args> x[49] x[69] </args>
      <args> x[49] x[73] </args>
      <args> x[49] x[76] </args>
      <args> x[49] x[79] </args>
      <args> x[50] x[51] </args>
      <args> x[50] x[52] </args>
      <args> x[50] x[53] </args>
      <args> x[50] x[58] </args>
      <args> x[50] x[59] </args>
      <args> x[50] x[60] </args>
      <args> x[50] x[66] </args>
      <args> x[50] x[68] </args>
      <args> x[50] x[70] </args>
      <args> x[50] x[74] </args>
      <args> x[50] x[77] </args>
      <args> x[50] x[80] </args>
      <args> x[51] x[52] </args>
      <args> x[51] x[53] </args>
      <args> x[51] x[59] </args>
      <args> x[51] x[60] </args>
      <args> x[51] x[61] </args>
      <args> x[51] x[67] </args>
      <args> x[51] x[69] </args>
      <args> x[51] x[71] </args>
      <args> x[51] x[75] </args>
      <args> x[51] x[78] </args>
      <args> x[52] x[53] </args>
      <args> x[52] x[60] </args>
      <args> x[52] x[61] </args>
      <args> x[52] x[62] </args>
      <args> x[52] x[68] </args>
      <args> x[52] x[70] </args>
      <args> x[52] x[76] </args>
      <args> x[52] x[79] </args>
      <args> x[53] x[61] </args>
      <args> x[53] x[62] </args>
      <args> x[53] x[69] </args>
      <args> x[53] x[71] </args>
      <args> x[53] x[77] </args>
      <args> x[53] x[80] </args>
      <args> x[54] x[55] </args>
      <args> x[54] x[56] </args>
      <args> x[54] x[57] </args>
      <args> x[54] x[58] </args>
      <args> x[54] x[59] </args>
      <args> x[54] x[60] </args>
      <args> x[54] x[61] </args>
      <args> x[54] x[62] </args>
      <args> x[54] x[63] </args>
      <args> x[54] x[64] </args>
      <args> x[54] x[72] </args>
      <args> x[54] x[74] </args>
      <args> x[55] x[56] </args>
      <args> x[55] x[57] </args>
      <args> x[55] x[58] </args>
      <args> x[55] x[59] </args>
      <args> x[55] x[60] </args>
      <args> x[55] x[61] </args>
      <args> x[55] x[62] </args>
      <args> x[55] x[63] </args>
      <args> x[55] x[64] </args>
      <args> x[55] x[65] </args>
      <args> x[55] x[73] </args>
      <args> x[55] x[75] </args>
      <args> x[56] x[57] </args>
      <args> x[56] x[58] </args>
      <args> x[56] x[59] </args>
      <args> x[56] x[60] </args>
      <args> x[56] x[61] </args>
      <args> x[56] x[62] </args>
      <args> x[56] x[64] </args>
      <args> x[56] x[65] </args>
      <args> x[56] x[66] </args>
      <args> x[56] x[72] </args>
      <args> x[56] x[74] </args>
      <args> x[56] x[76] </args>
      <args> x[57] x[58] </args>
      <args> x[57] x[59] </args>
      <args> x[57] x[60] </args>
      <args> x[57] x[61] </args>
      <args> x[57] x[62] </args>
      <args> x[57] x[65] </args>
      <args> x[57] x[66] </args>
      <args> x[57] x[67] </args>
      <args> x[57] x[73] </args>
      <args> x[57] x[75] </args>
      <args> x[57] x[77] </args>
      <args> x[58] x[59] </args>
      <args> x[58] x[60] </args>
      <args> x[58] x[61] </args>
      <args> x[58] x[62] </args>
      <args> x[58] x[66] </args>
      <args> x[58] x[67] </args>
      <args> x[58] x[68] </args>
      <args> x[58] x[74] </args>
      <args> x[58] x[76] </args>
      <args> x[58] x[78] </args>
      <args> x[59] x[60] </args>
      <args> x[59] x[61] </args>
      <args> x[59] x[62] </args>
      <args> x[59] x[67] </args>
      <args> x[59] x[68] </args>
      <args> x[59] x[69] </args>
      <args> x[59] x[75] </args>
      <args> x[59] x[77] </args>
      <args> x[59] x[79] </args>
      <args> x[60] x[61] </args>
      <args> x[60] x[62] </args>
      <args> x[60] x[68] </args>
      <args> x[60] x[69] </args>
      <args> x[60] x[70] </args>
      <args> x[60] x[76] </args>
      <args> x[60] x[78] </args>
      <args> x[60] x[80] </args>
      <args> x[61] x[62] </args>
      <args> x[61] x[69] </args>
      <args> x[61] x[70] </args>
      <args> x[61] x[71] </args>
      <args> x[61] x[77] </args>
      <args> x[61] x[79] </args>
      <args> x[62] x[70] </args>
      <args> x[62] x[71] </args>
      <args> x[62] x[78] </args>
      <args> x[62] x[80] </args>
      <args> x[63] x[64] </args>
      <args> x[63] x[65] </args>
      <args> x[63] x[66] </args>
      <args> x[63] x[67] </args>
      <args> x[63] x[68] </args>
      <args> x[63] x[69] </args>
      <args> x[63] x[70] </args>
      <args> x[63] x[71] </args>
      <args> x[63] x[72] </args>
      <args> x[63] x[73] </args>
      <args> x[64] x[65] </args>
      <args> x[64] x[66] </args>
      <args> x[64] x[67] </args>
      <args> x[64] x[68] </args>
      <args> x[64] x[69] </args>
      <args> x[64] x[70] </args>
      <args> x[64] x[71] </args>
      <args> x[64] x[72] </args>
      <args> x[64] x[73] </args>
      <args> x[64] x[74] </args>
      <args> x[65] x[66] </args>
      <args> x[65] x[67] </args>
      <args> x[65] x[68] </args>
      <args> x[65] x[69] </args>
      <args> x[65] x[70] </args>
      <args> x[65] x[71] </args>
      <args> x[65] x[73] </args>
      <args> x[65] x[74] </args>
      <args> x[65] x[75] </args>
      <args> x[66] x[67] </args>
      <args> x[66] x[68] </args>
      <args> x[66] x[69] </args>
      <args> x[66] x[70] </args>
      <args> x[66] x[71] </args>
      <args> x[66] x[74] </args>
      <args> x[66] x[75] </args>
      <args> x[66] x[76] </args>
      <args> x[67] x[68] </args>
      <args> x[67] x[69] </args>
      <args> x[67] x[70] </args>
      <args> x[67] x[71] </args>
      <args> x[67] x[75] </args>
      <args> x[67] x[76] </args>
      <args> x[67] x[77] </args>
      <args> x[68] x[69] </args>
      <args> x[68] x[70] </args>
      <args> x[68] x[71] </args>
      <args> x[68] x[76] </args>
      <args> x[68] x[77] </args>
      <args> x[68] x[78] </args>
      <args> x[69] x[70] </args>
      <args> x[69] x[71] </args>
      <args> x[69] x[77] </args>
      <args> x[69] x[78] </args>
      <args> x[69] x[79] </args>
      <args> x[70] x[71] </args>
      <args> x[70] x[78] </args>
      <args> x[70] x[79] </args>
      <args> x[70] x[80] </args>
      <args> x[71] x[79] </args>
      <args> x[71] x[80] </args>
      <args> x[72] x[73] </args>
      <args> x[72] x[74] </args>
      <args> x[72] x[75] </args>
      <args> x[72] x[76] </args>
      <args> x[72] x[77] </args>
      <args> x[72] x[78] </args>
      <args> x[72] x[79] </args>
      <args> x[72] x[80] </args>
      <args> x[73] x[74] </args>
      <args> x[73] x[75] </args>
      <args> x[73] x[76] </args>
      <args> x[73] x[77] </args>
      <args> x[73] x[78] </args>
      <args> x[73] x[79] </args>
      <args> x[73] x[80] </args>
      <args> x[74] x[75] </args>
      <args> x[74] x[76] </args>
      <args> x[74] x[77] </args>
      <args> x[74] x[78] </args>
      <args> x[74] x[79] </args>
      <args> x[74] x[80] </args>
      <args> x[75] x[76] </args>
      <args> x[75] x[77] </args>
      <args> x[75] x[78] </args>
      <args> x[75] x[79] </args>
      <args> x[75] x[80] </args>
      <args> x[76] x[77] </args>
      <args> x[76] x[78] </args>
      <args> x[76] x[79] </args>
      <args> x[76] x[80] </args>
      <args> x[77] x[78] </args>
      <args> x[77] x[79] </args>
      <args> x[77] x[80] </args>
      <args> x[78] x[79] </args>
      <args> x[78] x[80] </args>
      <args> x[79] x[80] </args>
    </group>
  </constraints>
  <objectives>
    <minimize type="maximum"> x[] </minimize>
  </objectives>
</instance>
